NAME: concorde12
TYPE: TSP
RUN_TIME: 180.945
DISTANCE: 66
COMMENT: Solution by max williams
DIMENSION: 12
EDGE_WEIGHT_TYPE: EUC_2D
NODE_COORD_SECTION
1 25.816994 74.261604
8 28.676472 76.160340
2 32.352940 77.426160
3 34.477123 73.839660
12 29.820261 65.822784
4 35.702614 59.282700
9 31.862745 55.274260
5 29.084967 52.109707
10 25.571896 53.164560
6 21.650328 58.016876
7 22.467320 64.556960
11 24.183006 69.198310
